15 40
25
3 11 12 0
3 13 0 11
2 9 0 31
2 7 8 18
3 9 12 31
3 7 12 11
2 11 6 0
2 13 6 11
4 11 0 0
4 13 4 24
5 3 7 37
2 11 4 0
2 2 2 30
3 11 3 11
3 2 3 22
4 5 0 25
4 6 8 0
2 12 8 25
2 1 0 30
5 3 2 37
5 13 10 18
4 12 8 6
4 1 0 24
2 5 2 32
2 6 10 31
